experimental-results/reproduced-data/fig4/urquhart-simon-03-05.cnf
c Random Instance of Urquhart's Problem for SAT (size=3 randomSeed=5).
c Like Hole, this problem as been proved to be exponential for resolution.
c N.B. : instance is unsatisfiable by construction.
c 
c Come from the paper 'Hard Examples for Resolution'.
c        Source : Laurent Simon, simon@lri.fr. May 1999.
c 
c n=3, so there is m^2=9 vertices in each part of the bipartite graph. 
c Bases creations : 
c   - a '1' charge is 'there must be an even number of negated vars'
c   - edges contains variables from which all subbases are constructed.
c vertex A0 :(charge=1), (edges=[13,27,33,28,5])
c vertex A1 :(charge=1), (edges=[41,35,16,5,11])
c vertex A2 :(charge=0), (edges=[22,21,4,10,12,11,34])
c vertex A3 :(charge=0), (edges=[17,34,26])
c vertex A4 :(charge=0), (edges=[18,25,30,39,26,19])
c vertex A5 :(charge=0), (edges=[40,19,7])
c vertex A6 :(charge=0), (edges=[32,29,23,43,7,15])
c vertex A7 :(charge=1), (edges=[3,15,36])
c vertex A8 :(charge=1), (edges=[42,20,8,1,36])
c vertex B0 :(charge=1), (edges=[18,28,10,29,20,6])
c vertex B1 :(charge=0), (edges=[17,33,16,21,30,6,31])
c vertex B2 :(charge=0), (edges=[32,4,8,31,37])
c vertex B3 :(charge=0), (edges=[3,39,23,1,37,9])
c vertex B4 :(charge=0), (edges=[42,35,43,9,24])
c vertex B5 :(charge=0), (edges=[13,24,2])
c vertex B6 :(charge=0), (edges=[41,27,2,38])
c vertex B7 :(charge=0), (edges=[40,12,38,14])
c vertex B8 :(charge=0), (edges=[22,25,14])
c 
p cnf 43 372
13 27 33 28 5 0
13 27 33 -28 -5 0
13 27 -33 28 -5 0
13 27 -33 -28 5 0
13 -27 33 28 -5 0
13 -27 33 -28 5 0
13 -27 -33 28 5 0
13 -27 -33 -28 -5 0
-13 27 33 28 -5 0
-13 27 33 -28 5 0
-13 27 -33 28 5 0
-13 27 -33 -28 -5 0
-13 -27 33 28 5 0
-13 -27 33 -28 -5 0
-13 -27 -33 28 -5 0
-13 -27 -33 -28 5 0
41 35 16 5 11 0
41 35 16 -5 -11 0
41 35 -16 5 -11 0
41 35 -16 -5 11 0
41 -35 16 5 -11 0
41 -35 16 -5 11 0
41 -35 -16 5 11 0
41 -35 -16 -5 -11 0
-41 35 16 5 -11 0
-41 35 16 -5 11 0
-41 35 -16 5 11 0
-41 35 -16 -5 -11 0
-41 -35 16 5 11 0
-41 -35 16 -5 -11 0
-41 -35 -16 5 -11 0
-41 -35 -16 -5 11 0
22 21 4 10 12 11 -34 0
22 21 4 10 12 -11 34 0
22 21 4 10 -12 11 34 0
22 21 4 10 -12 -11 -34 0
22 21 4 -10 12 11 34 0
22 21 4 -10 12 -11 -34 0
22 21 4 -10 -12 11 -34 0
22 21 4 -10 -12 -11 34 0
22 21 -4 10 12 11 34 0
22 21 -4 10 12 -11 -34 0
22 21 -4 10 -12 11 -34 0
22 21 -4 10 -12 -11 34 0
22 21 -4 -10 12 11 -34 0
22 21 -4 -10 12 -11 34 0
22 21 -4 -10 -12 11 34 0
22 21 -4 -10 -12 -11 -34 0
22 -21 4 10 12 11 34 0
22 -21 4 10 12 -11 -34 0
22 -21 4 10 -12 11 -34 0
22 -21 4 10 -12 -11 34 0
22 -21 4 -10 12 11 -34 0
22 -21 4 -10 12 -11 34 0
22 -21 4 -10 -12 11 34 0
22 -21 4 -10 -12 -11 -34 0
22 -21 -4 10 12 11 -34 0
22 -21 -4 10 12 -11 34 0
22 -21 -4 10 -12 11 34 0
22 -21 -4 10 -12 -11 -34 0
22 -21 -4 -10 12 11 34 0
22 -21 -4 -10 12 -11 -34 0
22 -21 -4 -10 -12 11 -34 0
22 -21 -4 -10 -12 -11 34 0
-22 21 4 10 12 11 34 0
-22 21 4 10 12 -11 -34 0
-22 21 4 10 -12 11 -34 0
-22 21 4 10 -12 -11 34 0
-22 21 4 -10 12 11 -34 0
-22 21 4 -10 12 -11 34 0
-22 21 4 -10 -12 11 34 0
-22 21 4 -10 -12 -11 -34 0
-22 21 -4 10 12 11 -34 0
-22 21 -4 10 12 -11 34 0
-22 21 -4 10 -12 11 34 0
-22 21 -4 10 -12 -11 -34 0
-22 21 -4 -10 12 11 34 0
-22 21 -4 -10 12 -11 -34 0
-22 21 -4 -10 -12 11 -34 0
-22 21 -4 -10 -12 -11 34 0
-22 -21 4 10 12 11 -34 0
-22 -21 4 10 12 -11 34 0
-22 -21 4 10 -12 11 34 0
-22 -21 4 10 -12 -11 -34 0
-22 -21 4 -10 12 11 34 0
-22 -21 4 -10 12 -11 -34 0
-22 -21 4 -10 -12 11 -34 0
-22 -21 4 -10 -12 -11 34 0
-22 -21 -4 10 12 11 34 0
-22 -21 -4 10 12 -11 -34 0
-22 -21 -4 10 -12 11 -34 0
-22 -21 -4 10 -12 -11 34 0
-22 -21 -4 -10 12 11 -34 0
-22 -21 -4 -10 12 -11 34 0
-22 -21 -4 -10 -12 11 34 0
-22 -21 -4 -10 -12 -11 -34 0
17 34 -26 0
17 -34 26 0
-17 34 26 0
-17 -34 -26 0
18 25 30 39 26 -19 0
18 25 30 39 -26 19 0
18 25 30 -39 26 19 0
18 25 30 -39 -26 -19 0
18 25 -30 39 26 19 0
18 25 -30 39 -26 -19 0
18 25 -30 -39 26 -19 0
18 25 -30 -39 -26 19 0
18 -25 30 39 26 19 0
18 -25 30 39 -26 -19 0
18 -25 30 -39 26 -19 0
18 -25 30 -39 -26 19 0
18 -25 -30 39 26 -19 0
18 -25 -30 39 -26 19 0
18 -25 -30 -39 26 19 0
18 -25 -30 -39 -26 -19 0
-18 25 30 39 26 19 0
-18 25 30 39 -26 -19 0
-18 25 30 -39 26 -19 0
-18 25 30 -39 -26 19 0
-18 25 -30 39 26 -19 0
-18 25 -30 39 -26 19 0
-18 25 -30 -39 26 19 0
-18 25 -30 -39 -26 -19 0
-18 -25 30 39 26 -19 0
-18 -25 30 39 -26 19 0
-18 -25 30 -39 26 19 0
-18 -25 30 -39 -26 -19 0
-18 -25 -30 39 26 19 0
-18 -25 -30 39 -26 -19 0
-18 -25 -30 -39 26 -19 0
-18 -25 -30 -39 -26 19 0
40 19 -7 0
40 -19 7 0
-40 19 7 0
-40 -19 -7 0
32 29 23 43 7 -15 0
32 29 23 43 -7 15 0
32 29 23 -43 7 15 0
32 29 23 -43 -7 -15 0
32 29 -23 43 7 15 0
32 29 -23 43 -7 -15 0
32 29 -23 -43 7 -15 0
32 29 -23 -43 -7 15 0
32 -29 23 43 7 15 0
32 -29 23 43 -7 -15 0
32 -29 23 -43 7 -15 0
32 -29 23 -43 -7 15 0
32 -29 -23 43 7 -15 0
32 -29 -23 43 -7 15 0
32 -29 -23 -43 7 15 0
32 -29 -23 -43 -7 -15 0
-32 29 23 43 7 15 0
-32 29 23 43 -7 -15 0
-32 29 23 -43 7 -15 0
-32 29 23 -43 -7 15 0
-32 29 -23 43 7 -15 0
-32 29 -23 43 -7 15 0
-32 29 -23 -43 7 15 0
-32 29 -23 -43 -7 -15 0
-32 -29 23 43 7 -15 0
-32 -29 23 43 -7 15 0
-32 -29 23 -43 7 15 0
-32 -29 23 -43 -7 -15 0
-32 -29 -23 43 7 15 0
-32 -29 -23 43 -7 -15 0
-32 -29 -23 -43 7 -15 0
-32 -29 -23 -43 -7 15 0
3 15 36 0
3 -15 -36 0
-3 15 -36 0
-3 -15 36 0
42 20 8 1 36 0
42 20 8 -1 -36 0
42 20 -8 1 -36 0
42 20 -8 -1 36 0
42 -20 8 1 -36 0
42 -20 8 -1 36 0
42 -20 -8 1 36 0
42 -20 -8 -1 -36 0
-42 20 8 1 -36 0
-42 20 8 -1 36 0
-42 20 -8 1 36 0
-42 20 -8 -1 -36 0
-42 -20 8 1 36 0
-42 -20 8 -1 -36 0
-42 -20 -8 1 -36 0
-42 -20 -8 -1 36 0
18 28 10 29 20 6 0
18 28 10 29 -20 -6 0
18 28 10 -29 20 -6 0
18 28 10 -29 -20 6 0
18 28 -10 29 20 -6 0
18 28 -10 29 -20 6 0
18 28 -10 -29 20 6 0
18 28 -10 -29 -20 -6 0
18 -28 10 29 20 -6 0
18 -28 10 29 -20 6 0
18 -28 10 -29 20 6 0
18 -28 10 -29 -20 -6 0
18 -28 -10 29 20 6 0
18 -28 -10 29 -20 -6 0
18 -28 -10 -29 20 -6 0
18 -28 -10 -29 -20 6 0
-18 28 10 29 20 -6 0
-18 28 10 29 -20 6 0
-18 28 10 -29 20 6 0
-18 28 10 -29 -20 -6 0
-18 28 -10 29 20 6 0
-18 28 -10 29 -20 -6 0
-18 28 -10 -29 20 -6 0
-18 28 -10 -29 -20 6 0
-18 -28 10 29 20 6 0
-18 -28 10 29 -20 -6 0
-18 -28 10 -29 20 -6 0
-18 -28 10 -29 -20 6 0
-18 -28 -10 29 20 -6 0
-18 -28 -10 29 -20 6 0
-18 -28 -10 -29 20 6 0
-18 -28 -10 -29 -20 -6 0
17 33 16 21 30 6 -31 0
17 33 16 21 30 -6 31 0
17 33 16 21 -30 6 31 0
17 33 16 21 -30 -6 -31 0
17 33 16 -21 30 6 31 0
17 33 16 -21 30 -6 -31 0
17 33 16 -21 -30 6 -31 0
17 33 16 -21 -30 -6 31 0
17 33 -16 21 30 6 31 0
17 33 -16 21 30 -6 -31 0
17 33 -16 21 -30 6 -31 0
17 33 -16 21 -30 -6 31 0
17 33 -16 -21 30 6 -31 0
17 33 -16 -21 30 -6 31 0
17 33 -16 -21 -30 6 31 0
17 33 -16 -21 -30 -6 -31 0
17 -33 16 21 30 6 31 0
17 -33 16 21 30 -6 -31 0
17 -33 16 21 -30 6 -31 0
17 -33 16 21 -30 -6 31 0
17 -33 16 -21 30 6 -31 0
17 -33 16 -21 30 -6 31 0
17 -33 16 -21 -30 6 31 0
17 -33 16 -21 -30 -6 -31 0
17 -33 -16 21 30 6 -31 0
17 -33 -16 21 30 -6 31 0
17 -33 -16 21 -30 6 31 0
17 -33 -16 21 -30 -6 -31 0
17 -33 -16 -21 30 6 31 0
17 -33 -16 -21 30 -6 -31 0
17 -33 -16 -21 -30 6 -31 0
17 -33 -16 -21 -30 -6 31 0
-17 33 16 21 30 6 31 0
-17 33 16 21 30 -6 -31 0
-17 33 16 21 -30 6 -31 0
-17 33 16 21 -30 -6 31 0
-17 33 16 -21 30 6 -31 0
-17 33 16 -21 30 -6 31 0
-17 33 16 -21 -30 6 31 0
-17 33 16 -21 -30 -6 -31 0
-17 33 -16 21 30 6 -31 0
-17 33 -16 21 30 -6 31 0
-17 33 -16 21 -30 6 31 0
-17 33 -16 21 -30 -6 -31 0
-17 33 -16 -21 30 6 31 0
-17 33 -16 -21 30 -6 -31 0
-17 33 -16 -21 -30 6 -31 0
-17 33 -16 -21 -30 -6 31 0
-17 -33 16 21 30 6 -31 0
-17 -33 16 21 30 -6 31 0
-17 -33 16 21 -30 6 31 0
-17 -33 16 21 -30 -6 -31 0
-17 -33 16 -21 30 6 31 0
-17 -33 16 -21 30 -6 -31 0
-17 -33 16 -21 -30 6 -31 0
-17 -33 16 -21 -30 -6 31 0
-17 -33 -16 21 30 6 31 0
-17 -33 -16 21 30 -6 -31 0
-17 -33 -16 21 -30 6 -31 0
-17 -33 -16 21 -30 -6 31 0
-17 -33 -16 -21 30 6 -31 0
-17 -33 -16 -21 30 -6 31 0
-17 -33 -16 -21 -30 6 31 0
-17 -33 -16 -21 -30 -6 -31 0
32 4 8 31 -37 0
32 4 8 -31 37 0
32 4 -8 31 37 0
32 4 -8 -31 -37 0
32 -4 8 31 37 0
32 -4 8 -31 -37 0
32 -4 -8 31 -37 0
32 -4 -8 -31 37 0
-32 4 8 31 37 0
-32 4 8 -31 -37 0
-32 4 -8 31 -37 0
-32 4 -8 -31 37 0
-32 -4 8 31 -37 0
-32 -4 8 -31 37 0
-32 -4 -8 31 37 0
-32 -4 -8 -31 -37 0
3 39 23 1 37 -9 0
3 39 23 1 -37 9 0
3 39 23 -1 37 9 0
3 39 23 -1 -37 -9 0
3 39 -23 1 37 9 0
3 39 -23 1 -37 -9 0
3 39 -23 -1 37 -9 0
3 39 -23 -1 -37 9 0
3 -39 23 1 37 9 0
3 -39 23 1 -37 -9 0
3 -39 23 -1 37 -9 0
3 -39 23 -1 -37 9 0
3 -39 -23 1 37 -9 0
3 -39 -23 1 -37 9 0
3 -39 -23 -1 37 9 0
3 -39 -23 -1 -37 -9 0
-3 39 23 1 37 9 0
-3 39 23 1 -37 -9 0
-3 39 23 -1 37 -9 0
-3 39 23 -1 -37 9 0
-3 39 -23 1 37 -9 0
-3 39 -23 1 -37 9 0
-3 39 -23 -1 37 9 0
-3 39 -23 -1 -37 -9 0
-3 -39 23 1 37 -9 0
-3 -39 23 1 -37 9 0
-3 -39 23 -1 37 9 0
-3 -39 23 -1 -37 -9 0
-3 -39 -23 1 37 9 0
-3 -39 -23 1 -37 -9 0
-3 -39 -23 -1 37 -9 0
-3 -39 -23 -1 -37 9 0
42 35 43 9 -24 0
42 35 43 -9 24 0
42 35 -43 9 24 0
42 35 -43 -9 -24 0
42 -35 43 9 24 0
42 -35 43 -9 -24 0
42 -35 -43 9 -24 0
42 -35 -43 -9 24 0
-42 35 43 9 24 0
-42 35 43 -9 -24 0
-42 35 -43 9 -24 0
-42 35 -43 -9 24 0
-42 -35 43 9 -24 0
-42 -35 43 -9 24 0
-42 -35 -43 9 24 0
-42 -35 -43 -9 -24 0
13 24 -2 0
13 -24 2 0
-13 24 2 0
-13 -24 -2 0
41 27 2 -38 0
41 27 -2 38 0
41 -27 2 38 0
41 -27 -2 -38 0
-41 27 2 38 0
-41 27 -2 -38 0
-41 -27 2 -38 0
-41 -27 -2 38 0
40 12 38 -14 0
40 12 -38 14 0
40 -12 38 14 0
40 -12 -38 -14 0
-40 12 38 14 0
-40 12 -38 -14 0
-40 -12 38 -14 0
-40 -12 -38 14 0
22 25 -14 0
22 -25 14 0
-22 25 14 0
-22 -25 -14 0
